experiment/data/lkh-res/Vrp-Set-Golden-n281/Vrp-Set-Golden-n281-lkh/0.lkh1.vrp
NAME : 0
COMMENT : CVRP Instance
TYPE : CVRP
DIMENSION : 281
EDGE_WEIGHT_TYPE : EUC_2D
CAPACITY : 900
NODE_COORD_SECTION
1	0	0
2	3000	0
3	2925	668
4	2703	1302
5	2345	1870
6	1870	2345
7	1302	2703
8	668	2925
9	0	3000
10	-667	2925
11	-1301	2703
12	-1869	2345
13	-2344	1870
14	-2702	1302
15	-2924	668
16	-2999	0
17	-2924	-667
18	-2702	-1301
19	-2344	-1869
20	-1869	-2344
21	-1301	-2702
22	-667	-2924
23	0	-2999
24	668	-2924
25	1302	-2702
26	1870	-2344
27	2345	-1869
28	2703	-1301
29	2925	-667
30	6000	0
31	5850	1335
32	5406	2603
33	4691	3741
34	3741	4691
35	2603	5406
36	1335	5850
37	0	6000
38	-1334	5850
39	-2602	5406
40	-3740	4691
41	-4690	3741
42	-5405	2603
43	-5849	1335
44	-5999	0
45	-5849	-1334
46	-5405	-2602
47	-4690	-3740
48	-3740	-4690
49	-2602	-5405
50	-1334	-5849
51	0	-5999
52	1335	-5849
53	2603	-5405
54	3741	-4690
55	4691	-3740
56	5406	-2602
57	5850	-1334
58	9000	0
59	8774	2003
60	8109	3905
61	7036	5611
62	5611	7036
63	3905	8109
64	2003	8774
65	0	9000
66	-2002	8774
67	-3904	8109
68	-5610	7036
69	-7035	5611
70	-8108	3905
71	-8773	2003
72	-8999	0
73	-8773	-2002
74	-8108	-3904
75	-7035	-5610
76	-5610	-7035
77	-3904	-8108
78	-2002	-8773
79	0	-8999
80	2003	-8773
81	3905	-8108
82	5611	-7035
83	7036	-5610
84	8109	-3904
85	8774	-2002
86	12000	0
87	11699	2670
88	10812	5207
89	9382	7482
90	7482	9382
91	5207	10812
92	2670	11699
93	0	12000
94	-2669	11699
95	-5206	10812
96	-7481	9382
97	-9381	7482
98	-10811	5207
99	-11698	2670
100	-11999	0
101	-11698	-2669
102	-10811	-5206
103	-9381	-7481
104	-7481	-9381
105	-5206	-10811
106	-2669	-11698
107	0	-11999
108	2670	-11698
109	5207	-10811
110	7482	-9381
111	9382	-7481
112	10812	-5206
113	11699	-2669
114	15000	0
115	14624	3338
116	13515	6508
117	11727	9352
118	9352	11727
119	6508	13515
120	3338	14624
121	0	15000
122	-3337	14624
123	-6507	13515
124	-9351	11727
125	-11726	9352
126	-13514	6508
127	-14623	3338
128	-14999	0
129	-14623	-3337
130	-13514	-6507
131	-11726	-9351
132	-9351	-11726
133	-6507	-13514
134	-3337	-14623
135	0	-14999
136	3338	-14623
137	6508	-13514
138	9352	-11726
139	11727	-9351
140	13515	-6507
141	14624	-3337
142	18000	0
143	17549	4005
144	16217	7810
145	14073	11223
146	11223	14073
147	7810	16217
148	4005	17549
149	0	18000
150	-4004	17549
151	-7809	16217
152	-11222	14073
153	-14072	11223
154	-16216	7810
155	-17548	4005
156	-17999	0
157	-17548	-4004
158	-16216	-7809
159	-14072	-11222
160	-11222	-14072
161	-7809	-16216
162	-4004	-17548
163	0	-17999
164	4005	-17548
165	7810	-16216
166	11223	-14072
167	14073	-11222
168	16217	-7809
169	17549	-4004
170	21000	0
171	20473	4673
172	18920	9112
173	16418	13093
174	13093	16418
175	9112	18920
176	4673	20473
177	0	21000
178	-4672	20473
179	-9111	18920
180	-13092	16418
181	-16417	13093
182	-18919	9112
183	-20472	4673
184	-20999	0
185	-20472	-4672
186	-18919	-9111
187	-16417	-13092
188	-13092	-16417
189	-9111	-18919
190	-4672	-20472
191	0	-20999
192	4673	-20472
193	9112	-18919
194	13093	-16417
195	16418	-13092
196	18920	-9111
197	20473	-4672
198	24000	0
199	23398	5341
200	21623	10413
201	18764	14964
202	14964	18764
203	10413	21623
204	5341	23398
205	0	24000
206	-5340	23398
207	-10412	21623
208	-14963	18764
209	-18763	14964
210	-21622	10413
211	-23397	5341
212	-23999	0
213	-23397	-5340
214	-21622	-10412
215	-18763	-14963
216	-14963	-18763
217	-10412	-21622
218	-5340	-23397
219	0	-23999
220	5341	-23397
221	10413	-21622
222	14964	-18763
223	18764	-14963
224	21623	-10412
225	23398	-5340
226	27000	0
227	26323	6008
228	24326	11715
229	21109	16834
230	16834	21109
231	11715	24326
232	6008	26323
233	0	27000
234	-6007	26323
235	-11714	24326
236	-16833	21109
237	-21108	16834
238	-24325	11715
239	-26322	6008
240	-26999	0
241	-26322	-6007
242	-24325	-11714
243	-21108	-16833
244	-16833	-21108
245	-11714	-24325
246	-6007	-26322
247	0	-26999
248	6008	-26322
249	11715	-24325
250	16834	-21108
251	21109	-16833
252	24326	-11714
253	26323	-6007
254	30000	0
255	29248	6676
256	27029	13017
257	23455	18705
258	18705	23455
259	13017	27029
260	6676	29248
261	0	30000
262	-6675	29248
263	-13016	27029
264	-18704	23455
265	-23454	18705
266	-27028	13017
267	-29247	6676
268	-29999	0
269	-29247	-6675
270	-27028	-13016
271	-23454	-18704
272	-18704	-23454
273	-13016	-27028
274	-6675	-29247
275	0	-29999
276	6676	-29247
277	13017	-27028
278	18705	-23454
279	23455	-18704
280	27029	-13016
281	29248	-6675
DEMAND_SECTION
1	0
2	10
3	30
4	30
5	10
6	10
7	30
8	30
9	10
10	10
11	30
12	30
13	10
14	10
15	30
16	30
17	10
18	10
19	30
20	30
21	10
22	10
23	30
24	30
25	10
26	10
27	30
28	30
29	10
30	10
31	30
32	30
33	10
34	10
35	30
36	30
37	10
38	10
39	30
40	30
41	10
42	10
43	30
44	30
45	10
46	10
47	30
48	30
49	10
50	10
51	30
52	30
53	10
54	10
55	30
56	30
57	10
58	10
59	30
60	30
61	10
62	10
63	30
64	30
65	10
66	10
67	30
68	30
69	10
70	10
71	30
72	30
73	10
74	10
75	30
76	30
77	10
78	10
79	30
80	30
81	10
82	10
83	30
84	30
85	10
86	10
87	30
88	30
89	10
90	10
91	30
92	30
93	10
94	10
95	30
96	30
97	10
98	10
99	30
100	30
101	10
102	10
103	30
104	30
105	10
106	10
107	30
108	30
109	10
110	10
111	30
112	30
113	10
114	10
115	30
116	30
117	10
118	10
119	30
120	30
121	10
122	10
123	30
124	30
125	10
126	10
127	30
128	30
129	10
130	10
131	30
132	30
133	10
134	10
135	30
136	30
137	10
138	10
139	30
140	30
141	10
142	10
143	30
144	30
145	10
146	10
147	30
148	30
149	10
150	10
151	30
152	30
153	10
154	10
155	30
156	30
157	10
158	10
159	30
160	30
161	10
162	10
163	30
164	30
165	10
166	10
167	30
168	30
169	10
170	10
171	30
172	30
173	10
174	10
175	30
176	30
177	10
178	10
179	30
180	30
181	10
182	10
183	30
184	30
185	10
186	10
187	30
188	30
189	10
190	10
191	30
192	30
193	10
194	10
195	30
196	30
197	10
198	10
199	30
200	30
201	10
202	10
203	30
204	30
205	10
206	10
207	30
208	30
209	10
210	10
211	30
212	30
213	10
214	10
215	30
216	30
217	10
218	10
219	30
220	30
221	10
222	10
223	30
224	30
225	10
226	10
227	30
228	30
229	10
230	10
231	30
232	30
233	10
234	10
235	30
236	30
237	10
238	10
239	30
240	30
241	10
242	10
243	30
244	30
245	10
246	10
247	30
248	30
249	10
250	10
251	30
252	30
253	10
254	10
255	30
256	30
257	10
258	10
259	30
260	30
261	10
262	10
263	30
264	30
265	10
266	10
267	30
268	30
269	10
270	10
271	30
272	30
273	10
274	10
275	30
276	30
277	10
278	10
279	30
280	30
281	10
DEPOT_SECTION
1
-1
EOF
