experiment/data/lkh-res/Vrp-Set-Golden-n281/Vrp-Set-Golden-n281-lkh/0.lkh1.tour
NAME : 0.853472.tour
COMMENT : Length = 853472
COMMENT : Found by LKH-3 [Keld Helsgaun] Tue Apr  9 01:59:08 2024
TYPE : TOUR
DIMENSION : 287
TOUR_SECTION
1
2
29
57
30
58
85
113
141
169
197
225
253
281
254
226
198
170
142
114
86
87
115
143
171
199
227
255
256
228
200
172
144
116
88
60
59
31
3
284
11
12
40
68
96
124
152
180
153
181
209
237
265
208
236
264
263
235
207
179
151
123
95
94
122
150
178
206
234
262
261
233
205
177
149
121
93
65
66
67
39
38
37
9
10
283
13
14
42
41
69
70
98
97
125
126
154
182
210
238
266
267
239
211
183
155
127
99
100
128
156
184
212
240
268
269
241
213
185
157
129
101
73
72
71
43
15
285
5
4
32
33
61
89
117
145
173
201
229
257
258
230
202
174
146
118
90
91
119
147
175
203
231
259
260
232
204
176
148
120
92
64
63
62
34
35
36
8
7
6
286
24
52
80
108
136
164
192
220
248
276
219
247
275
274
246
218
190
162
191
163
135
134
106
107
79
78
50
51
23
22
287
19
18
17
16
44
45
46
47
75
74
102
130
158
186
214
242
270
271
243
215
187
159
131
103
104
132
160
188
216
244
272
273
245
217
189
161
133
105
77
76
48
49
21
20
282
26
25
53
54
82
81
109
137
165
193
221
249
277
278
250
222
194
166
138
110
111
139
167
195
223
251
279
280
252
224
196
168
140
112
84
83
55
56
28
27
-1
EOF
